
Gurobi 11.0.2 (linux64) logging started Tue 03 Dec 2024 09:03:27 AM CET

Set parameter LogFile to value "./res/knapPI_11_50_1000/knapPI_11_50_1000_16/grb_dom.log"
Set parameter Presolve to value 0
Set parameter Aggregate to value 0
Set parameter Heuristics to value 0
Set parameter LPWarmStart to value 0
Set parameter NLPHeur to value 0
Set parameter PreDepRow to value 0
Set parameter PreDual to value 0
Set parameter RINS to value 0
Set parameter Symmetry to value 0
Set parameter NodeLimit to value 1
Set parameter Threads to value 1

Gurobi 11.0.2 (linux64) logging started Tue 03 Dec 2024 09:03:32 AM CET

Set parameter LogFile to value "./res/knapPI_11_50_1000/knapPI_11_50_1000_16/grb_dom.log"
Set parameter NLPHeur to value 0
Set parameter LPWarmStart to value 0
Set parameter PreDepRow to value 0
Set parameter Symmetry to value 0
Set parameter Presolve to value 0
Gurobi Optimizer version 11.0.2 build v11.0.2rc0 (linux64 - "Pop!_OS 20.04 LTS")

CPU model: Intel(R) Core(TM) i7-8650U CPU @ 1.90GHz, instruction set [SSE2|AVX|AVX2]
Thread count: 4 physical cores, 4 logical processors, using up to 1 threads

Optimize a model with 37439 rows, 50 columns and 1292881 nonzeros
Model fingerprint: 0x71f89526
Variable types: 0 continuous, 50 integer (50 binary)
Coefficient statistics:
  Matrix range     [1e+00, 2e+03]
  Objective range  [1e+02, 1e+03]
  Bounds range     [0e+00, 0e+00]
  RHS range        [7e+03, 7e+03]
Variable types: 0 continuous, 50 integer (50 binary)

Root relaxation: objective 5.973219e+03, 18 iterations, 0.32 seconds (0.07 work units)

    Nodes    |    Current Node    |     Objective Bounds      |     Work
 Expl Unexpl |  Obj  Depth IntInf | Incumbent    BestBd   Gap | It/Node Time

     0     0 5973.21854    0    1          - 5973.21854      -     -    0s
     0     0 5973.21854    0    1          - 5973.21854      -     -    1s
     0     0 5973.21854    0    2          - 5973.21854      -     -    2s
     0     0 5973.21854    0    3          - 5973.21854      -     -    3s
     0     0 5973.21854    0    1          - 5973.21854      -     -    4s
     0     0 5973.21854    0    1          - 5973.21854      -     -    4s
     0     0 5973.21854    0    4          - 5973.21854      -     -    5s
     0     0 5973.21854    0    4          - 5973.21854      -     -    5s
     0     0 5973.21854    0    2          - 5973.21854      -     -    6s
     0     0 5973.21854    0    5          - 5973.21854      -     -    6s
     0     0 5973.21854    0    5          - 5973.21854      -     -    6s
     0     2 5973.21854    0    5          - 5973.21854      -     -    7s

Cutting planes:
  Gomory: 1
  Cover: 4
  RLT: 2

Explored 1 nodes (40 simplex iterations) in 7.19 seconds (3.93 work units)
Thread count was 1 (of 4 available processors)

Solution count 0

Node limit reached
Best objective -, best bound 5.973000000000e+03, gap -

User-callback calls 1566, time in user-callback 0.01 sec
opt = false
obj = 5973.2185
nb_dom_cuts = 37438
solved_time = 7.1907
opt_val = 5940.0
